Executando Fernandes MODIFICADO
Rodando pra 1h
Optimize a model with 490110 rows, 734060 columns and 26879761 nonzeros
Coefficient statistics:
  Matrix range    [1e+00, 1e+07]
  Objective range [2e-01, 2e-01]
  Bounds range    [1e+00, 1e+07]
  RHS range       [1e+00, 7e+02]
Found heuristic solution: objective 36057
Presolve removed 1 rows and 16 columns (presolve time = 7s) ...
Presolve removed 1 rows and 16 columns (presolve time = 24s) ...
Presolve removed 1 rows and 16 columns (presolve time = 33s) ...
Presolve removed 1 rows and 16 columns (presolve time = 40s) ...
Presolve removed 1 rows and 16 columns (presolve time = 48s) ...
Presolve removed 1 rows and 16 columns (presolve time = 51s) ...
Presolve removed 1 rows and 16 columns (presolve time = 55s) ...
Presolve removed 1 rows and 16 columns (presolve time = 60s) ...
Presolve removed 1 rows and 16 columns (presolve time = 66s) ...
Presolve removed 1 rows and 16 columns (presolve time = 71s) ...
Presolve removed 1 rows and 16 columns (presolve time = 75s) ...
Presolve removed 1 rows and 16 columns (presolve time = 81s) ...
Presolve removed 1 rows and 16 columns (presolve time = 85s) ...
Presolve removed 1 rows and 16 columns (presolve time = 90s) ...
Presolve removed 1 rows and 16 columns (presolve time = 106s) ...
Presolve removed 1 rows and 16 columns (presolve time = 110s) ...
Presolve removed 1 rows and 16 columns (presolve time = 132s) ...
Presolve removed 1 rows and 16 columns
Presolve time: 131.82s
Presolved: 490109 rows, 734044 columns, 26879691 nonzeros
Variable types: 489300 continuous, 244744 integer (244740 binary)
Optimize a model with 490109 rows, 734044 columns and 26879691 nonzeros
Coefficient statistics:
  Matrix range    [7e-04, 1e+07]
  Objective range [2e-01, 2e-01]
  Bounds range    [1e+00, 1e+05]
  RHS range       [1e+00, 1e+07]
Presolve removed 0 rows and 0 columns (presolve time = 8s) ...
Presolve removed 0 rows and 0 columns (presolve time = 10s) ...
Presolved: 490109 rows, 734044 columns, 26879691 nonzeros


Root simplex log...

Iteration    Objective       Primal Inf.    Dual Inf.      Time
       0    0.0000000e+00   2.103683e+03   0.000000e+00    153s
    1422    0.0000000e+00   0.000000e+00   0.000000e+00    154s

Root relaxation: objective 0.000000e+00, 1422 iterations, 13.22 seconds
